DIM: 16
FLOW: 
0 0 0 0 0 0 0 0 0 0 0 0 0 0 0 0 
0 0 0 0 0 0 0 0 0 0 0 0 0 0 0 0 
0 0 0 0 0 0 0 0 0 0 0 0 0 0 0 0 
0 0 0 0 0 0 0 0 0 0 0 0 0 0 0 0 
0 0 0 0 0 0 0 0 0 0 0 0 0 0 0 0 
0 0 0 0 0 0 0 0 0 0 0 0 0 0 0 0 
0 0 0 0 0 0 0 0 0 0 0 0 0 0 0 0 
0 0 0 0 0 0 0 0 0 0 0 0 0 0 0 0 
0 0 0 0 0 0 0 0 0 0 0 0 0 0 0 0 
0 0 0 0 0 0 0 0 0 0 0 0 0 0 0 0 
0 0 0 0 0 0 0 0 0 0 0 0 0 0 0 0 
0 0 0 0 0 0 0 0 0 0 0 0 0 0 0 0 
0 0 0 0 0 0 0 0 0 0 0 0 0 0 0 0 
0 0 0 0 0 0 0 0 0 0 0 0 0 0 0 0 
0 0 0 0 0 0 0 0 0 0 0 0 0 0 0 0 
0 0 0 0 0 0 0 0 0 0 0 0 0 0 0 0 
FLOW: 
0 0 1 0 1 0 2 1 1 0 2 1 2 1 3 2 
0 1 0 0 1 2 0 1 1 2 0 1 2 3 1 2 
1 0 0 0 2 1 1 0 2 1 1 0 3 2 2 1 
0 1 1 2 0 0 0 1 1 2 2 3 0 1 1 2 
1 0 2 1 0 0 1 0 2 1 3 2 1 0 2 1 
1 2 0 1 0 1 0 0 2 3 1 2 1 2 0 1 
2 1 1 0 1 0 0 0 3 2 2 1 2 1 1 0 
0 1 1 2 1 2 2 3 0 0 0 1 0 1 1 2 
1 0 2 1 2 1 3 2 0 0 1 0 1 0 2 1 
1 2 0 1 2 3 1 2 0 1 0 0 1 2 0 1 
2 1 1 0 3 2 2 1 1 0 0 0 2 1 1 0 
1 2 2 3 0 1 1 2 0 1 1 2 0 0 0 1 
2 1 3 2 1 0 2 1 1 0 2 1 0 0 1 0 
2 3 1 2 1 2 0 1 1 2 0 1 0 1 0 0 
3 2 2 1 2 1 1 0 2 1 1 0 1 0 0 0 

OPT_OBJ: 0
OPT_SOLUTION: 
1 2 3 4 5 6 7 8 9 10 11 12 13 14 15 16 